Route #1: 56 98
Route #2: 124 88 109 110 35 58 31 97 13 10 62 4 23 26 9 137 114 85 24 126 52 95 118 32 16
Route #3: 91 71 81 104 86 136 83 68 116 128 101 11 14 33 135 102 100 67 42 15 8 39 51 84 30 7 3
Route #4: 76 122 111 105 46 43 77 106 82 64 127 130 93 132 107 92 41 80 78 133 75 120 73 45 20 121 79 54
Route #5: 89 63 28 138 103 21 55 18 1 119 47 17 37 40 134 59 60 65 48 61 19 66 72 117 99 87 29
Route #6: 70 74 50 123 27 115 34 131 38 69 94 108 22 112 25 125 36 2 49 129 53 96 5 6 113 90 12 44 57
Cost 11267.000000